(set-info :smt-lib-version 2.6)
(set-logic QF_UFLRA)
(set-info :source |
MathSat group

|)
(set-info :category "random")
(set-info :status unsat)
(declare-fun x0 () Real)
(declare-fun x1 () Real)
(declare-fun x2 () Real)
(declare-fun x3 () Real)
(declare-fun x4 () Real)
(declare-fun x5 () Real)
(declare-fun x6 () Real)
(declare-fun x7 () Real)
(declare-fun x8 () Real)
(declare-fun x9 () Real)
(declare-fun x10 () Real)
(declare-fun x11 () Real)
(declare-fun x12 () Real)
(declare-fun x13 () Real)
(declare-fun x14 () Real)
(declare-fun x15 () Real)
(declare-fun x16 () Real)
(declare-fun x17 () Real)
(declare-fun x18 () Real)
(declare-fun x19 () Real)
(declare-fun x20 () Real)
(declare-fun x21 () Real)
(declare-fun x22 () Real)
(declare-fun x23 () Real)
(declare-fun x24 () Real)
(declare-fun x25 () Real)
(declare-fun x26 () Real)
(declare-fun x27 () Real)
(declare-fun x28 () Real)
(declare-fun x29 () Real)
(declare-fun f0_1 (Real) Real)
(declare-fun f0_2 (Real Real) Real)
(declare-fun f0_3 (Real Real Real) Real)
(declare-fun f0_4 (Real Real Real Real) Real)
(declare-fun P0 () Bool)
(declare-fun P1 () Bool)
(declare-fun P2 () Bool)
(declare-fun P3 () Bool)
(declare-fun P4 () Bool)
(declare-fun P5 () Bool)
(declare-fun P6 () Bool)
(declare-fun P7 () Bool)
(declare-fun P8 () Bool)
(declare-fun P9 () Bool)
(declare-fun P10 () Bool)
(declare-fun P11 () Bool)
(declare-fun P12 () Bool)
(declare-fun P13 () Bool)
(declare-fun P14 () Bool)
(declare-fun P15 () Bool)
(declare-fun P16 () Bool)
(declare-fun P17 () Bool)
(declare-fun P18 () Bool)
(declare-fun P19 () Bool)
(declare-fun P20 () Bool)
(declare-fun P21 () Bool)
(declare-fun P22 () Bool)
(declare-fun P23 () Bool)
(declare-fun P24 () Bool)
(declare-fun P25 () Bool)
(declare-fun P26 () Bool)
(declare-fun P27 () Bool)
(declare-fun P28 () Bool)
(declare-fun P29 () Bool)
(assert (let ((?v_61 (* 39 x8)) (?v_140 (< (- (+ (* 35 x8) (* 33 x11)) (* 15 x3)) 16)) (?v_35 (distinct (+ (- (* 25 x25) (* 33 x3)) (* 33 x2)) 4))) (let ((?v_110 (= (- (+ (* 32 x4) (* 41 x12)) ?v_61) 24)) (?v_84 (= (- (+ (* 7 x5) (* 41 x14)) (* 15 x29)) 28)) (?v_49 (<= (- (+ (* 41 x7) (* 21 x13)) (* 6 x24)) 11)) (?v_10 (f0_1 x20))) (let ((?v_74 (= ?v_10 (f0_1 x7))) (?v_37 (f0_1 x1))) (let ((?v_98 (distinct ?v_37 x27)) (?v_128 (distinct x23 x6)) (?v_154 (distinct x0 ?v_37)) (?v_121 (= x26 x7)) (?v_0 (f0_1 x15)) (?v_18 (f0_1 x9))) (let ((?v_7 (distinct ?v_0 ?v_18)) (?v_20 (f0_1 x5))) (let ((?v_139 (distinct ?v_20 x5)) (?v_72 (f0_1 x0))) (let ((?v_42 (distinct ?v_72 x27)) (?v_91 (distinct x20 (f0_2 x6 x14))) (?v_95 (distinct ?v_10 (f0_2 x15 x22))) (?v_34 (= (f0_2 x22 x28) ?v_37)) (?v_101 (distinct x17 x13)) (?v_71 (f0_1 x6))) (let ((?v_127 (= ?v_71 x26)) (?v_6 (f0_1 x26))) (let ((?v_17 (distinct ?v_6 x20)) (?v_31 (distinct (f0_2 x6 x19) (f0_2 x25 x2))) (?v_14 (distinct (f0_2 x15 x8) (f0_1 x13))) (?v_8 (distinct (f0_2 x22 x25) (f0_2 x27 x25))) (?v_124 (distinct (f0_1 x29) x5)) (?v_5 (= (f0_2 x3 x26) (f0_2 x1 x10))) (?v_25 (= (f0_1 x23) x0)) (?v_78 (= ?v_6 (f0_2 x18 x27))) (?v_45 (distinct x20 (f0_1 x8))) (?v_93 (= (f0_1 x22) (f0_1 x24))) (?v_68 (= (f0_2 x21 x23) (f0_2 x20 x3))) (?v_52 (distinct (f0_1 x28) ?v_18)) (?v_2 (distinct ?v_20 (f0_2 x8 x22))) (?v_16 (distinct (f0_1 x27) ?v_6)) (?v_21 (distinct (f0_2 x19 x28) (f0_1 x3))) (?v_28 (= (f0_2 x15 x19) ?v_0)) (?v_142 (= ?v_71 ?v_72))) (let ((?v_149 (not ?v_68)) (?v_97 (not ?v_14)) (?v_60 (not ?v_74)) (?v_59 (not ?v_31)) (?v_9 (not ?v_2)) (?v_100 (not ?v_28)) (?v_1 (not P5)) (?v_108 (not ?v_34)) (?v_3 (not ?v_7)) (?v_130 (not ?v_17)) (?v_32 (not P9)) (?v_54 (not P14)) (?v_11 (not P0)) (?v_90 (not P26)) (?v_48 (not P13)) (?v_86 (not P25)) (?v_46 (not ?v_8)) (?v_73 (not ?v_16)) (?v_99 (not ?v_95)) (?v_81 (not P2)) (?v_33 (not ?v_5)) (?v_24 (not ?v_49)) (?v_22 (not P18)) (?v_29 (not P15)) (?v_50 (not ?v_101)) (?v_53 (not P6)) (?v_43 (not ?v_140)) (?v_150 (not P10)) (?v_57 (not ?v_52)) (?v_44 (not ?v_139)) (?v_55 (not ?v_84)) (?v_79 (not P28)) (?v_83 (not P20)) (?v_118 (not P8)) (?v_92 (not ?v_124)) (?v_65 (not P4)) (?v_27 (not P23)) (?v_75 (not P16)) (?v_116 (not ?v_154)) (?v_70 (not P27)) (?v_119 (not P21)) (?v_136 (not ?v_42)) (?v_80 (not ?v_45)) (?v_82 (not P3)) (?v_123 (not ?v_91)) (?v_138 (not ?v_110)) (?v_88 (not P7)) (?v_129 (not ?v_21)) (?v_87 (not P24)) (?v_114 (not ?v_142)) (?v_126 (not P29)) (?v_132 (not ?v_78)) (?v_105 (not ?v_35)) (?v_147 (not P22)) (?v_125 (not P12)) (?v_112 (not P1)) (?v_153 (not ?v_98)) (?v_141 (not ?v_25)) (?v_135 (not P17)) (?v_144 (not P19)) (?v_156 (not ?v_121))) (let ((?v_160 (or ?v_119 ?v_54)) (?v_155 (not ?v_128)) (?v_148 (not P11)) (?v_152 (not ?v_127)) (?v_106 (<= (+ (* 22 x25) (* 33 x15) (* 38 x4)) 21)) (?v_23 (<= (+ (* 16 x9) (* 33 x27) (* 30 x11)) 31))) (let ((?v_76 (not ?v_23)) (?v_62 (<= (- (+ (* 31 x2) (* 25 x27)) 0) 23))) (let ((?v_104 (not ?v_62)) (?v_117 (not ?v_106)) (?v_26 (< (- (- (* (- 23) x12) (* 9 x9)) (* 21 x21)) 9)) (?v_66 (< (- (- (* (- 11) x21) (* 27 x23)) (* 35 x2)) 15))) (let ((?v_12 (not ?v_66)) (?v_15 (<= (- (+ x16 (* 31 x23)) (* 10 x4)) (- 34))) (?v_36 (< (- (- (* (- 11) x13) (* 35 x10)) (* 26 x1)) (- 33))) (?v_4 (<= (- (+ (* 23 x3) (* 12 x26)) (* 3 x19)) (- 2)))) (let ((?v_67 (not ?v_4)) (?v_103 (< (+ (- (* 29 x12) (* 6 x22)) (* 9 x5)) (- 33)))) (let ((?v_96 (not ?v_103)) (?v_13 (< (+ (- (* (- 17) x10) (* 37 x3)) (* 31 x9)) (- 17))) (?v_122 (< (- (- (* (- 6) x0) x27) (* 2 x7)) (- 7))) (?v_19 (<= (- (- (* (- 20) x27) (* 22 x3)) (* 39 x27)) 17))) (let ((?v_131 (not ?v_19)) (?v_77 (< (- (+ (* 6 x25) (* 26 x11)) x9) (- 11))) (?v_41 (not ?v_13)) (?v_134 (<= (- (- (* (- 5) x25) (* 26 x16)) (* 2 x18)) (- 18)))) (let ((?v_56 (not ?v_134)) (?v_38 (= (- (+ (* (- 10) x11) (* 18 x23)) (* 35 x22)) (- 38)))) (let ((?v_120 (not ?v_38)) (?v_47 (not ?v_26)) (?v_69 (<= (- (+ (* 40 x27) (* 27 x28)) (* 12 x6)) (- 4)))) (let ((?v_30 (not ?v_69)) (?v_40 (<= (+ (* (- 10) x14) (* 32 x13) ?v_61) 5)) (?v_89 (<= (+ (* (- 10) x6) x16 (* 42 x13)) 23))) (let ((?v_94 (not ?v_89)) (?v_39 (< (+ (* (- 33) x20) (* 10 x13) (* 5 x2)) (- 39))) (?v_146 (not ?v_36))) (let ((?v_63 (not ?v_39)) (?v_51 (< (+ (- (* 34 x3) (* 32 x27)) (* 42 x7)) (- 16)))) (let ((?v_113 (not ?v_51)) (?v_64 (<= (+ (* (- 41) x16) (* 34 x28) (* 26 x5)) 0))) (let ((?v_85 (not ?v_64)) (?v_58 (not ?v_40)) (?v_102 (= (+ (* 8 x21) (* 18 x9) (* 14 x18)) (- 22)))) (let ((?v_158 (not ?v_102)) (?v_111 (not ?v_15)) (?v_107 (< (- (- (* (- 40) x6) (* 26 x12)) (* 23 x16)) 11))) (let ((?v_145 (not ?v_107)) (?v_151 (not ?v_77)) (?v_109 (< (+ (* (- 32) x23) (* 40 x18) (* 37 x6)) 34))) (let ((?v_115 (not ?v_109)) (?v_137 (not ?v_122)) (?v_133 (<= (+ (* (- 11) x10) (* 32 x14) (* 26 x18)) (- 41)))) (let ((?v_143 (not ?v_133)) (?v_159 (or P23 ?v_12)) (?v_157 (or ?v_15 ?v_25))) (and (and (and (and (and (and (and (and (and (and (and (and (and (and (and (and (and (and (and (and (and (and (and (and (and (and (and (and (and (and (and (and (and (and (and (and (and (and (and (and (and (and (and (and (and (and (and (and (and (and (and (and (and (and (and (and (and (and (and (and (and (and (and (and (and (and (and (and (and (and (and (and (and (and (and (and (and (and (and (and (and (and (and (and (and (and (and (and (and (and (and (and (and (and (and (and (and (and (and (and (and (and (and (and (and (and (and (and (and (and (and (and (and (and (and (and (and (and (and (and (and (and (and (and (and (and (and (and (and (and (and (and (and (and (and (and (and (and (and (and (and (and (and (and (and (and (and (and (and (and (and (and (and (and (and (and (and (and (and (and (and (and (and (and (and (and (and (and (and (and (and (and (and (and (and (and (and (and (and (and (and (and (and (and (and (and (and (and (and (and (and (and (and (and (and (and (and (and (and (and (and (and (and (and (and (and (and (and (and (and (and (and (and (and (and (and (and (and (and (and (and (and (and (and (and (and (and (and (and (and (and (and (and (and (and (and (and (and (and (and (and (and (and (and (and (and (and (and (and (and (and (and (and (and (and (and (and (and (and (and (and (and (and (and (and (and (and (and (and (and (and (and (and (and (and (and (and (and (and (and (and (and (and (and (and (and (and (and (and (and (and (and (and (and (and (and (and (and (and (and (and (and (and (and (and (and (and (and (and (and (and (and (and (and (and (and (and (and (and (and (and (and (and (and (and (and (and (and (and (and (and (and (and (and (and (and (and (and (and (and (and (and (and (and (and (and (and (and (and (and (and (and (and (and (and (and (and (and (and (and (and (and (and (and (and (and (and (and (and (and (and (and (and (and (and (and (and (and (and (and (and (and (and (and (and (and (and (and (and (and (and (and (and (and (and (and (and (and (and (and (and (and (and (and (and (and (and (and (and (and (and (and (and (and (and (and (and (and (and (and (and (and (and (and (and (and (and (and (and (and (and (and (and (and (and (and (and (and (and (and (and (and (and (and (and (and (and (and (and (or (or ?v_149 ?v_97) P8) (or (or P15 ?v_26) ?v_60)) (or (or ?v_12 P2) ?v_59)) (or (or ?v_9 ?v_100) P13)) (or (or ?v_1 ?v_25) P4)) (or (or P4 ?v_15) ?v_106)) (or (or P29 ?v_108) ?v_3)) (or (or ?v_5 ?v_1) ?v_76)) (or (or ?v_2 P29) P10)) (or (or ?v_1 ?v_130) ?v_42)) (or (or ?v_36 ?v_67) ?v_32)) (or (or ?v_96 P2) P15)) (or (or ?v_54 P23) ?v_11)) (or (or ?v_13 P18) ?v_3)) (or (or ?v_90 ?v_4) ?v_122)) (or (or ?v_48 ?v_5) ?v_86)) (or (or ?v_46 P8) P28)) (or (or P29 P8) ?v_73)) (or (or ?v_7 P16) ?v_2)) (or (or ?v_8 ?v_131) ?v_9)) (or (or ?v_99 ?v_77) ?v_11)) (or (or ?v_81 P11) P25)) (or (or ?v_33 ?v_12) P1)) (or (or P25 ?v_21) P28)) (or (or ?v_24 ?v_22) ?v_29)) (or (or P23 ?v_41) P2)) (or (or ?v_14 ?v_50) ?v_15)) (or (or ?v_16 ?v_53) ?v_43)) (or (or ?v_78 P3) ?v_17)) (or (or ?v_150 ?v_57) ?v_19)) (or (or ?v_44 ?v_21) P24)) (or (or ?v_55 ?v_128) ?v_79)) (or (or ?v_83 ?v_118) ?v_22)) (or (or ?v_56 ?v_92) ?v_45)) (or (or ?v_17 ?v_120) ?v_2)) (or (or ?v_65 ?v_15) ?v_3)) (or (or ?v_23 ?v_23) ?v_24)) (or (or ?v_25 ?v_25) ?v_27)) (or (or ?v_47 ?v_30) P4)) (or (or ?v_35 ?v_27) ?v_19)) (or (or ?v_28 P9) P21)) (or (or ?v_29 ?v_40) ?v_30)) (or (or ?v_31 ?v_94) ?v_75)) (or (or ?v_32 ?v_39) ?v_33)) (or (or ?v_34 ?v_35) ?v_121)) (or (or ?v_33 ?v_33) ?v_146)) (or (or ?v_116 P10) ?v_31)) (or (or ?v_16 ?v_38) ?v_63)) (or (or ?v_113 ?v_70) ?v_40)) (or (or ?v_35 ?v_41) ?v_119)) (or (or ?v_136 ?v_43) ?v_104)) (or (or ?v_24 ?v_85) ?v_44)) (or (or ?v_80 P24) ?v_46)) (or (or ?v_47 ?v_82) ?v_14)) (or (or ?v_48 P11) P24)) (or (or ?v_26 ?v_26) ?v_49)) (or (or P22 ?v_4) P9)) (or (or ?v_50 ?v_98) ?v_48)) (or (or ?v_41 ?v_51) P23)) (or (or ?v_52 ?v_27) ?v_42)) (or (or ?v_58 ?v_53) ?v_31)) (or (or ?v_127 ?v_54) ?v_55)) (or (or ?v_4 ?v_56) ?v_57)) (or (or ?v_58 ?v_54) ?v_43)) (or (or ?v_42 ?v_53) ?v_123)) (or (or ?v_12 ?v_59) ?v_158)) (or (or ?v_60 ?v_138) ?v_62)) (or (or ?v_60 P22) ?v_63)) (or (or ?v_16 ?v_33) ?v_50)) (or (or ?v_29 ?v_55) ?v_64)) (or (or P23 P1) ?v_65)) (or (or ?v_5 ?v_51) ?v_66)) (or (or P5 ?v_88) ?v_57)) (or (or ?v_31 ?v_93) ?v_60)) (or (or ?v_129 P13) P7)) (or (or ?v_30 ?v_87) ?v_43)) (or (or ?v_67 ?v_68) ?v_24)) (or (or ?v_66 ?v_43) ?v_69)) (or (or P23 ?v_2) P16)) (or (or ?v_2 ?v_70) ?v_114)) (or (or ?v_111 ?v_73) P18)) (or (or ?v_126 ?v_35) ?v_74)) (or (or ?v_43 ?v_13) ?v_145)) (or (or ?v_75 P28) ?v_5)) (or (or ?v_76 ?v_151) ?v_132)) (or (or ?v_62 ?v_53) ?v_79)) (or (or ?v_41 ?v_80) ?v_81)) (or (or ?v_1 ?v_56) ?v_82)) (or (or ?v_45 ?v_68) ?v_83)) (or (or ?v_84 ?v_83) P23)) (or (or ?v_33 P28) P9)) (or (or ?v_85 ?v_13) ?v_63)) (or (or ?v_31 P7) ?v_86)) (or (or ?v_87 ?v_16) ?v_85)) (or (or ?v_88 ?v_21) ?v_47)) (or (or ?v_89 ?v_90) ?v_9)) (or (or ?v_91 ?v_58) ?v_25)) (or (or ?v_105 ?v_92) ?v_14)) (or (or ?v_40 ?v_93) P13)) (or (or ?v_94 P20) P3)) (or (or ?v_147 P21) ?v_42)) (or (or ?v_80 ?v_57) ?v_93)) (or (or ?v_95 ?v_96) ?v_88)) (or (or ?v_125 ?v_69) ?v_28)) (or (or ?v_34 P29) ?v_97)) (or (or ?v_83 ?v_98) ?v_2)) (or (or ?v_45 P21) ?v_99)) (or (or ?v_27 ?v_100) ?v_98)) (or (or ?v_101 ?v_102) P19)) (or (or P14 ?v_103) ?v_82)) (or (or ?v_104 ?v_98) ?v_109)) (or (or ?v_105 ?v_117) ?v_39)) (or (or ?v_9 ?v_23) ?v_107)) (or (or ?v_45 ?v_94) ?v_108)) (or (or P3 ?v_100) ?v_46)) (or (or ?v_92 ?v_42) ?v_115)) (or (or ?v_51 P5) ?v_112)) (or (or ?v_44 ?v_8) ?v_89)) (or (or ?v_82 P7) P18)) (or (or ?v_12 P14) ?v_89)) (or (or P23 ?v_85) ?v_46)) (or (or ?v_21 ?v_56) ?v_110)) (or (or ?v_111 ?v_52) ?v_42)) (or (or ?v_112 ?v_25) ?v_28)) (or (or ?v_23 ?v_113) ?v_48)) (or (or ?v_38 ?v_14) P6)) (or (or ?v_67 ?v_114) ?v_64)) (or (or P11 P6) P13)) (or (or ?v_101 ?v_28) ?v_92)) (or (or ?v_63 ?v_115) ?v_19)) (or (or ?v_2 ?v_82) ?v_116)) (or (or ?v_17 ?v_15) ?v_117)) (or (or ?v_25 ?v_33) P27)) (or (or ?v_118 ?v_17) P12)) (or (or P0 P21) ?v_107)) (or (or ?v_17 ?v_56) ?v_85)) (or (or ?v_65 ?v_88) ?v_64)) (or (or ?v_42 P23) ?v_38)) (or (or P24 ?v_58) ?v_119)) (or (or ?v_120 ?v_121) ?v_42)) (or (or ?v_77 ?v_137) ?v_78)) (or (or ?v_21 ?v_1) ?v_123)) (or (or ?v_116 ?v_49) ?v_70)) (or (or P11 ?v_116) ?v_36)) (or (or P0 P29) ?v_88)) (or (or ?v_124 ?v_97) ?v_52)) (or (or ?v_46 ?v_88) ?v_79)) (or (or ?v_125 ?v_90) ?v_89)) (or (or ?v_101 ?v_126) ?v_127)) (or (or ?v_32 ?v_128) ?v_68)) (or (or P17 ?v_153) P20)) (or (or ?v_41 ?v_115) ?v_141)) (or (or ?v_129 ?v_69) ?v_73)) (or (or P27 P23) ?v_130)) (or (or ?v_25 ?v_131) ?v_122)) (or (or ?v_23 P21) ?v_133)) (or (or ?v_82 ?v_88) ?v_28)) (or (or ?v_107 ?v_120) ?v_132)) (or (or ?v_75 P13) ?v_135)) (or (or ?v_143 ?v_46) ?v_134)) (or (or ?v_35 ?v_101) ?v_135)) (or (or ?v_114 ?v_30) P4)) (or (or ?v_102 ?v_57) ?v_134)) (or (or ?v_43 ?v_92) ?v_126)) (or (or ?v_43 ?v_94) ?v_12)) (or (or ?v_69 ?v_19) ?v_104)) (or (or P10 ?v_135) ?v_48)) (or (or P22 ?v_136) ?v_49)) (or (or ?v_19 ?v_27) ?v_2)) (or (or P15 ?v_84) ?v_62)) (or (or ?v_89 ?v_41) ?v_125)) (or (or ?v_137 P28) ?v_65)) (or (or ?v_100 P13) ?v_138)) (or (or ?v_112 P4) ?v_113)) (or (or ?v_53 ?v_58) ?v_21)) (or (or ?v_139 P13) P19)) (or (or ?v_140 ?v_87) ?v_42)) (or (or ?v_14 ?v_15) ?v_47)) (or (or ?v_144 ?v_17) ?v_25)) (or (or P27 ?v_21) ?v_141)) (or (or ?v_74 ?v_156) ?v_114)) (or (or ?v_112 ?v_1) ?v_16)) (or (or ?v_32 ?v_2) ?v_115)) (or (or ?v_65 P17) ?v_133)) (or (or ?v_135 ?v_17) ?v_52)) (or (or ?v_95 ?v_55) ?v_49)) (or (or ?v_107 ?v_123) ?v_32)) (or (or ?v_114 P27) P6)) (or (or ?v_44 ?v_142) ?v_108)) (or (or P10 ?v_49) P25)) (or ?v_160 ?v_47)) (or (or ?v_98 ?v_81) ?v_60)) (or (or ?v_110 ?v_28) ?v_155)) (or (or P8 ?v_3) ?v_40)) (or (or ?v_118 ?v_95) ?v_62)) (or (or P24 ?v_100) ?v_54)) (or (or ?v_15 ?v_117) ?v_108)) (or (or ?v_137 ?v_24) ?v_76)) (or (or ?v_66 P29) ?v_44)) (or (or P28 ?v_105) ?v_73)) (or (or ?v_77 ?v_143) ?v_73)) (or (or ?v_97 P15) ?v_80)) (or (or ?v_68 ?v_114) ?v_97)) (or (or P25 ?v_118) ?v_144)) (or (or P27 ?v_50) P20)) (or (or ?v_131 ?v_93) ?v_145)) (or (or ?v_132 ?v_49) ?v_141)) (or (or ?v_59 ?v_57) ?v_53)) (or (or ?v_81 ?v_101) ?v_43)) (or (or ?v_35 ?v_21) ?v_24)) (or (or ?v_38 ?v_73) ?v_25)) (or (or ?v_129 ?v_124) ?v_79)) (or (or ?v_104 ?v_146) P24)) (or (or ?v_42 ?v_80) ?v_134)) (or (or ?v_40 ?v_35) ?v_91)) (or (or ?v_139 ?v_36) ?v_79)) (or (or ?v_44 ?v_122) ?v_13)) (or (or ?v_102 ?v_30) ?v_107)) (or (or ?v_102 ?v_25) P2)) (or (or P20 ?v_14) ?v_63)) (or (or ?v_14 ?v_148) ?v_116)) (or (or ?v_147 ?v_57) ?v_38)) (or (or ?v_88 ?v_124) ?v_89)) (or (or P12 ?v_65) P20)) (or (or P26 P6) ?v_76)) (or (or P4 ?v_133) ?v_108)) (or (or ?v_77 ?v_97) ?v_48)) (or (or ?v_59 ?v_96) ?v_21)) (or (or ?v_118 P26) P20)) (or (or P18 ?v_9) ?v_47)) (or (or ?v_78 ?v_50) ?v_8)) (or (or ?v_66 P25) ?v_79)) (or (or ?v_102 P16) ?v_87)) (or (or P29 P24) ?v_111)) (or (or ?v_110 ?v_148) ?v_11)) (or (or P1 ?v_93) ?v_4)) (or (or ?v_149 P25) ?v_84)) (or (or ?v_95 ?v_85) ?v_13)) (or (or ?v_44 ?v_140) ?v_24)) (or (or ?v_51 ?v_90) ?v_26)) (or (or ?v_60 ?v_118) ?v_32)) (or (or ?v_89 P16) ?v_23)) (or (or ?v_143 ?v_32) ?v_24)) (or (or ?v_144 ?v_92) ?v_86)) (or (or P8 ?v_85) ?v_114)) (or (or ?v_97 ?v_106) P19)) (or (or ?v_134 ?v_32) P8)) (or (or ?v_55 ?v_82) ?v_67)) (or (or ?v_40 ?v_150) ?v_141)) (or (or ?v_74 ?v_89) ?v_63)) (or (or ?v_143 ?v_97) P29)) (or (or ?v_12 ?v_91) ?v_30)) (or (or P2 ?v_136) ?v_2)) (or (or ?v_98 P29) ?v_95)) (or (or ?v_39 P3) ?v_84)) (or (or ?v_151 ?v_100) ?v_126)) (or (or ?v_7 ?v_116) P13)) (or (or ?v_116 ?v_68) ?v_97)) (or (or ?v_152 ?v_36) ?v_88)) (or (or ?v_89 ?v_36) ?v_78)) (or (or ?v_106 ?v_132) ?v_151)) (or (or ?v_64 ?v_62) P19)) (or (or ?v_64 P5) ?v_63)) (or (or ?v_109 ?v_2) ?v_38)) (or (or ?v_124 P28) ?v_141)) (or (or ?v_31 ?v_79) ?v_58)) (or (or ?v_80 ?v_138) ?v_152)) (or (or ?v_85 P19) ?v_48)) (or (or ?v_78 ?v_13) ?v_17)) (or (or ?v_153 ?v_133) P28)) (or (or ?v_154 ?v_5) ?v_59)) (or (or ?v_82 ?v_62) ?v_126)) (or (or P7 ?v_4) P14)) (or (or ?v_11 P9) ?v_52)) (or (or P21 ?v_81) ?v_19)) (or (or ?v_133 ?v_82) ?v_132)) (or (or ?v_100 ?v_134) ?v_81)) (or (or ?v_95 ?v_127) ?v_133)) (or (or ?v_103 P1) ?v_29)) (or (or ?v_140 ?v_139) ?v_91)) (or (or ?v_149 ?v_136) P5)) (or (or ?v_97 ?v_119) ?v_84)) (or (or ?v_127 ?v_49) ?v_109)) (or (or ?v_63 ?v_155) ?v_53)) (or (or P7 ?v_97) ?v_130)) (or (or ?v_142 ?v_108) ?v_27)) (or (or ?v_92 ?v_92) P21)) (or (or P16 P11) ?v_87)) (or (or ?v_48 ?v_26) ?v_125)) (or (or ?v_8 P18) ?v_110)) (or (or ?v_152 ?v_84) ?v_76)) (or (or P15 ?v_36) ?v_124)) (or (or ?v_135 ?v_56) ?v_89)) (or (or ?v_63 P18) P21)) (or (or ?v_23 ?v_41) ?v_79)) (or (or ?v_130 ?v_7) ?v_124)) (or (or P16 ?v_145) ?v_121)) (or (or P22 ?v_62) ?v_55)) (or (or P26 ?v_74) ?v_70)) (or (or ?v_105 P22) ?v_28)) (or (or ?v_21 ?v_8) ?v_107)) (or (or ?v_129 ?v_102) ?v_68)) (or (or ?v_23 ?v_38) ?v_116)) (or (or ?v_155 ?v_100) ?v_134)) (or (or P16 P23) ?v_62)) (or (or (not ?v_93) P28) ?v_153)) (or (or ?v_49 ?v_105) ?v_109)) (or (or ?v_128 ?v_142) ?v_29)) (or (or P4 ?v_4) ?v_94)) (or (or ?v_134 ?v_137) ?v_109)) (or (or ?v_86 ?v_84) ?v_127)) (or (or ?v_23 P2) ?v_49)) (or (or P2 ?v_126) P7)) (or ?v_159 ?v_109)) (or (or ?v_11 ?v_14) P20)) (or (or ?v_38 P28) ?v_91)) (or (or ?v_80 ?v_92) P3)) (or (or ?v_4 ?v_109) ?v_124)) (or (or ?v_25 ?v_86) ?v_51)) (or (or P0 ?v_53) ?v_65)) (or (or ?v_85 ?v_120) ?v_47)) (or (or P19 ?v_101) ?v_12)) (or (or ?v_69 ?v_123) ?v_96)) (or (or ?v_51 ?v_93) ?v_4)) (or (or ?v_121 ?v_142) ?v_145)) (or (or ?v_144 ?v_144) ?v_73)) (or (or ?v_81 ?v_8) P12)) (or (or ?v_102 ?v_78) ?v_30)) (or (or P4 ?v_22) ?v_56)) (or (or ?v_60 ?v_79) ?v_117)) (or (or ?v_28 ?v_100) P18)) (or (or ?v_92 ?v_56) ?v_115)) (or (or ?v_86 ?v_35) P9)) (or (or ?v_62 P13) ?v_43)) (or (or ?v_153 ?v_80) ?v_9)) (or (or ?v_42 P28) ?v_122)) (or (or ?v_138 ?v_100) P6)) (or (or ?v_101 ?v_142) P10)) (or (or P26 ?v_25) ?v_47)) (or (or ?v_130 ?v_107) ?v_69)) (or (or ?v_2 P26) ?v_128)) (or (or ?v_1 ?v_137) ?v_120)) (or (or ?v_127 ?v_29) ?v_98)) (or (or P8 ?v_40) ?v_60)) (or (or ?v_114 ?v_13) ?v_32)) (or (or ?v_43 ?v_126) ?v_120)) (or (or ?v_65 ?v_40) ?v_136)) (or (or ?v_152 ?v_155) ?v_91)) (or (or ?v_1 ?v_102) P25)) (or (or ?v_143 ?v_95) P20)) (or (or ?v_96 ?v_150) ?v_126)) (or (or ?v_33 ?v_36) ?v_108)) (or (or ?v_129 P24) ?v_118)) (or (or ?v_83 ?v_7) P5)) (or (or ?v_132 ?v_81) ?v_110)) (or (or ?v_129 P29) ?v_148)) (or (or ?v_113 ?v_35) P6)) (or (or ?v_129 ?v_13) ?v_1)) (or (or ?v_141 ?v_142) ?v_62)) (or (or ?v_83 ?v_138) P29)) (or (or ?v_141 ?v_121) ?v_140)) (or (or ?v_82 ?v_138) ?v_62)) (or (or P28 ?v_80) ?v_153)) (or (or ?v_80 P7) P12)) (or (or ?v_103 ?v_74) ?v_90)) (or (or ?v_85 P22) ?v_70)) (or (or P9 ?v_156) ?v_39)) (or (or ?v_5 P7) P26)) (or (or ?v_29 ?v_7) ?v_26)) (or (or ?v_91 ?v_98) ?v_56)) (or (or P11 P8) ?v_105)) (or (or ?v_15 P21) P28)) (or (or P1 ?v_34) ?v_35)) (or (or ?v_22 ?v_102) ?v_68)) (or (or P11 ?v_117) ?v_75)) (or (or ?v_139 ?v_115) ?v_48)) (or (or ?v_109 P20) ?v_50)) (or (or ?v_118 ?v_147) ?v_25)) (or (or P28 ?v_15) P14)) (or (or ?v_46 ?v_93) ?v_95)) (or (or ?v_16 ?v_156) ?v_117)) (or (or ?v_133 ?v_26) P3)) (or (or P29 ?v_25) ?v_147)) (or (or P18 ?v_118) ?v_131)) (or (or ?v_141 ?v_118) ?v_47)) (or (or ?v_109 ?v_89) P13)) (or (or P4 ?v_36) ?v_5)) (or (or ?v_152 ?v_134) ?v_100)) (or (or ?v_35 P3) ?v_141)) (or (or ?v_74 ?v_28) ?v_25)) (or (or ?v_101 ?v_26) P16)) (or (or ?v_91 ?v_82) ?v_102)) (or ?v_157 ?v_35)) (or (or ?v_27 ?v_154) P18)) (or (or ?v_149 ?v_48) ?v_16)) (or (or ?v_11 ?v_31) ?v_131)) (or (or ?v_76 ?v_41) ?v_114)) (or (or ?v_65 ?v_149) ?v_22)) (or (or ?v_53 ?v_17) ?v_95)) (or (or P18 P9) ?v_128)) (or (or ?v_25 ?v_93) ?v_104)) (or (or ?v_121 ?v_113) ?v_106)) (or (or ?v_141 ?v_112) ?v_73)) (or (or ?v_118 P8) ?v_45)) (or (or ?v_83 ?v_137) ?v_49)) (or (or ?v_89 ?v_151) ?v_58)) (or (or P8 ?v_113) ?v_48)) (or (or ?v_111 ?v_41) ?v_115)) (or (or ?v_88 ?v_64) ?v_125)) (or (or ?v_143 ?v_25) P12)) (or (or ?v_94 ?v_108) ?v_13)) (or (or ?v_133 P13) ?v_21)) (or (or ?v_9 ?v_75) ?v_26)) (or (or ?v_114 ?v_76) ?v_33)) (or (or P14 ?v_55) ?v_14)) (or (or ?v_127 P29) ?v_50)) (or (or ?v_8 ?v_59) ?v_106)) (or (or ?v_88 ?v_27) ?v_4)) (or (or ?v_81 ?v_7) ?v_118)) (or (or ?v_75 ?v_66) ?v_106)) (or ?v_157 P4)) (or (or ?v_104 ?v_117) P19)) (or (or ?v_139 ?v_108) ?v_52)) (or (or ?v_7 ?v_118) ?v_148)) (or (or ?v_48 ?v_69) ?v_35)) (or (or ?v_95 ?v_29) ?v_17)) (or (or ?v_116 ?v_84) ?v_123)) (or (or P1 ?v_81) ?v_158)) (or (or ?v_121 P24) ?v_138)) (or (or ?v_35 ?v_150) ?v_31)) (or (or P3 P24) ?v_29)) (or (or ?v_24 ?v_107) P21)) (or (or P20 ?v_47) ?v_104)) (or (or P13 ?v_39) P6)) (or (or ?v_86 ?v_151) ?v_99)) (or (or P27 ?v_66) ?v_55)) (or ?v_159 P0)) (or ?v_160 ?v_135)) (or (or ?v_27 ?v_118) ?v_86)) (or (or ?v_22 ?v_65) P28)) (or (or ?v_63 ?v_55) ?v_135)) (or (or ?v_109 ?v_123) ?v_86)) (or (or ?v_143 ?v_41) ?v_56)) (or (or ?v_65 P7) ?v_3)) (or (or ?v_73 P5) ?v_66)) (or (or ?v_9 ?v_86) ?v_126)) (or (or ?v_47 P2) ?v_67)) (or (or ?v_76 ?v_122) ?v_5)) (or (or ?v_63 ?v_114) ?v_50)) (or (or ?v_123 ?v_26) ?v_111)))))))))))))))))))))))))))))))
(check-sat)
(exit)
